8866
35, 44, 16, 29, 30, 50, 20, 23, 18, 3, 17, 7, 42, 2, 21, 31, 22, 1, 49, 32, 19, 45, 41, 8, 9, 10, 33, 43, 15, 24, 48, 46, 28, 27, 26, 47, 14, 52, 13, 11, 12, 51, 25, 4, 6, 5, 38, 40, 37, 39, 36, 34
